p cnf 550 1504
-17 1 0
-17 -10 0
17 -1 10 0
-18 -9 0
-18 -17 0
18 9 17 0
-19 -8 0
-19 18 0
19 8 -18 0
-20 -7 0
-20 19 0
20 7 -19 0
-21 -6 0
-21 20 0
21 6 -20 0
-22 -5 0
-22 21 0
22 5 -21 0
-23 -4 0
-23 22 0
23 4 -22 0
-24 -3 0
-24 23 0
24 3 -23 0
-25 9 0
-25 17 0
25 -9 -17 0
-26 -18 0
-26 -25 0
26 18 25 0
-27 24 0
-27 26 0
27 -24 -26 0
-28 1 0
-28 -11 0
28 -1 11 0
-29 -9 0
-29 -28 0
29 9 28 0
-30 1 0
-30 24 0
30 -1 -24 0
-31 -10 0
-31 -30 0
31 10 30 0
-32 10 0
-32 30 0
32 -10 -30 0
-33 -31 0
-33 -32 0
33 31 32 0
-34 9 0
-34 28 0
34 -9 -28 0
-35 33 0
-35 -34 0
35 -33 34 0
-36 -29 0
-36 -35 0
36 29 35 0
-37 -8 0
-37 -36 0
37 8 36 0
-38 8 0
-38 36 0
38 -8 -36 0
-39 27 0
-39 -38 0
39 -27 38 0
-40 -37 0
-40 -39 0
40 37 39 0
-41 -7 0
-41 -40 0
41 7 40 0
-42 8 0
-42 -18 0
42 -8 18 0
-43 -19 0
-43 -42 0
43 19 42 0
-44 24 0
-44 43 0
44 -24 -43 0
-45 7 0
-45 40 0
45 -7 -40 0
-46 44 0
-46 -45 0
46 -44 45 0
-47 -41 0
-47 -46 0
47 41 46 0
-48 -6 0
-48 -47 0
48 6 47 0
-49 7 0
-49 -19 0
49 -7 19 0
-50 -20 0
-50 -49 0
50 20 49 0
-51 24 0
-51 50 0
51 -24 -50 0
-52 6 0
-52 47 0
52 -6 -47 0
-53 51 0
-53 -52 0
53 -51 52 0
-54 -48 0
-54 -53 0
54 48 53 0
-55 -5 0
-55 -54 0
55 5 54 0
-56 6 0
-56 -20 0
56 -6 20 0
-57 -21 0
-57 -56 0
57 21 56 0
-58 24 0
-58 57 0
58 -24 -57 0
-59 5 0
-59 54 0
59 -5 -54 0
-60 58 0
-60 -59 0
60 -58 59 0
-61 -55 0
-61 -60 0
61 55 60 0
-62 -4 0
-62 -61 0
62 4 61 0
-63 5 0
-63 -21 0
63 -5 21 0
-64 -22 0
-64 -63 0
64 22 63 0
-65 24 0
-65 64 0
65 -24 -64 0
-66 4 0
-66 61 0
66 -4 -61 0
-67 65 0
-67 -66 0
67 -65 66 0
-68 -62 0
-68 -67 0
68 62 67 0
-69 -3 0
-69 -68 0
69 3 68 0
-70 -37 0
-70 -38 0
70 37 38 0
-71 69 0
-71 70 0
71 -69 -70 0
-72 -27 0
-72 -71 0
72 27 71 0
-73 27 0
-73 71 0
73 -27 -71 0
-74 -72 0
-74 -73 0
74 72 73 0
-75 1 0
-75 -12 0
75 -1 12 0
-76 -9 0
-76 -75 0
76 9 75 0
-77 1 0
-77 69 0
77 -1 -69 0
-78 -11 0
-78 -77 0
78 11 77 0
-79 11 0
-79 77 0
79 -11 -77 0
-80 -78 0
-80 -79 0
80 78 79 0
-81 9 0
-81 75 0
81 -9 -75 0
-82 80 0
-82 -81 0
82 -80 81 0
-83 -76 0
-83 -82 0
83 76 82 0
-84 -8 0
-84 -83 0
84 8 83 0
-85 -29 0
-85 -34 0
85 29 34 0
-86 69 0
-86 85 0
86 -69 -85 0
-87 -33 0
-87 -86 0
87 33 86 0
-88 33 0
-88 86 0
88 -33 -86 0
-89 -87 0
-89 -88 0
89 87 88 0
-90 8 0
-90 83 0
90 -8 -83 0
-91 89 0
-91 -90 0
91 -89 90 0
-92 -84 0
-92 -91 0
92 84 91 0
-93 -7 0
-93 -92 0
93 7 92 0
-94 7 0
-94 92 0
94 -7 -92 0
-95 74 0
-95 -94 0
95 -74 94 0
-96 -93 0
-96 -95 0
96 93 95 0
-97 -6 0
-97 -96 0
97 6 96 0
-98 -41 0
-98 -45 0
98 41 45 0
-99 69 0
-99 98 0
99 -69 -98 0
-100 -44 0
-100 -99 0
100 44 99 0
-101 44 0
-101 99 0
101 -44 -99 0
-102 -100 0
-102 -101 0
102 100 101 0
-103 6 0
-103 96 0
103 -6 -96 0
-104 102 0
-104 -103 0
104 -102 103 0
-105 -97 0
-105 -104 0
105 97 104 0
-106 -5 0
-106 -105 0
106 5 105 0
-107 -48 0
-107 -52 0
107 48 52 0
-108 69 0
-108 107 0
108 -69 -107 0
-109 -51 0
-109 -108 0
109 51 108 0
-110 51 0
-110 108 0
110 -51 -108 0
-111 -109 0
-111 -110 0
111 109 110 0
-112 5 0
-112 105 0
112 -5 -105 0
-113 111 0
-113 -112 0
113 -111 112 0
-114 -106 0
-114 -113 0
114 106 113 0
-115 -4 0
-115 -114 0
115 4 114 0
-116 -55 0
-116 -59 0
116 55 59 0
-117 69 0
-117 116 0
117 -69 -116 0
-118 -58 0
-118 -117 0
118 58 117 0
-119 58 0
-119 117 0
119 -58 -117 0
-120 -118 0
-120 -119 0
120 118 119 0
-121 4 0
-121 114 0
121 -4 -114 0
-122 120 0
-122 -121 0
122 -120 121 0
-123 -115 0
-123 -122 0
123 115 122 0
-124 -3 0
-124 -123 0
124 3 123 0
-125 -62 0
-125 -66 0
125 62 66 0
-126 69 0
-126 125 0
126 -69 -125 0
-127 -65 0
-127 -126 0
127 65 126 0
-128 65 0
-128 126 0
128 -65 -126 0
-129 -127 0
-129 -128 0
129 127 128 0
-130 3 0
-130 123 0
130 -3 -123 0
-131 129 0
-131 -130 0
131 -129 130 0
-132 -124 0
-132 -131 0
132 124 131 0
-133 -93 0
-133 -94 0
133 93 94 0
-134 -132 0
-134 133 0
134 132 -133 0
-135 -74 0
-135 -134 0
135 74 134 0
-136 74 0
-136 134 0
136 -74 -134 0
-137 -135 0
-137 -136 0
137 135 136 0
-138 -124 0
-138 -130 0
138 124 130 0
-139 129 0
-139 -138 0
139 -129 138 0
-140 1 0
-140 -13 0
140 -1 13 0
-141 -9 0
-141 -140 0
141 9 140 0
-142 1 0
-142 -132 0
142 -1 132 0
-143 -12 0
-143 -142 0
143 12 142 0
-144 12 0
-144 142 0
144 -12 -142 0
-145 -143 0
-145 -144 0
145 143 144 0
-146 9 0
-146 140 0
146 -9 -140 0
-147 145 0
-147 -146 0
147 -145 146 0
-148 -141 0
-148 -147 0
148 141 147 0
-149 -8 0
-149 -148 0
149 8 148 0
-150 -76 0
-150 -81 0
150 76 81 0
-151 -132 0
-151 150 0
151 132 -150 0
-152 -80 0
-152 -151 0
152 80 151 0
-153 80 0
-153 151 0
153 -80 -151 0
-154 -152 0
-154 -153 0
154 152 153 0
-155 8 0
-155 148 0
155 -8 -148 0
-156 154 0
-156 -155 0
156 -154 155 0
-157 -149 0
-157 -156 0
157 149 156 0
-158 -7 0
-158 -157 0
158 7 157 0
-159 -84 0
-159 -90 0
159 84 90 0
-160 -132 0
-160 159 0
160 132 -159 0
-161 -89 0
-161 -160 0
161 89 160 0
-162 89 0
-162 160 0
162 -89 -160 0
-163 -161 0
-163 -162 0
163 161 162 0
-164 7 0
-164 157 0
164 -7 -157 0
-165 163 0
-165 -164 0
165 -163 164 0
-166 -158 0
-166 -165 0
166 158 165 0
-167 -6 0
-167 -166 0
167 6 166 0
-168 6 0
-168 166 0
168 -6 -166 0
-169 137 0
-169 -168 0
169 -137 168 0
-170 -167 0
-170 -169 0
170 167 169 0
-171 -5 0
-171 -170 0
171 5 170 0
-172 -97 0
-172 -103 0
172 97 103 0
-173 -132 0
-173 172 0
173 132 -172 0
-174 -102 0
-174 -173 0
174 102 173 0
-175 102 0
-175 173 0
175 -102 -173 0
-176 -174 0
-176 -175 0
176 174 175 0
-177 5 0
-177 170 0
177 -5 -170 0
-178 176 0
-178 -177 0
178 -176 177 0
-179 -171 0
-179 -178 0
179 171 178 0
-180 -4 0
-180 -179 0
180 4 179 0
-181 -106 0
-181 -112 0
181 106 112 0
-182 -132 0
-182 181 0
182 132 -181 0
-183 -111 0
-183 -182 0
183 111 182 0
-184 111 0
-184 182 0
184 -111 -182 0
-185 -183 0
-185 -184 0
185 183 184 0
-186 4 0
-186 179 0
186 -4 -179 0
-187 185 0
-187 -186 0
187 -185 186 0
-188 -180 0
-188 -187 0
188 180 187 0
-189 -3 0
-189 -188 0
189 3 188 0
-190 -115 0
-190 -121 0
190 115 121 0
-191 -132 0
-191 190 0
191 132 -190 0
-192 -120 0
-192 -191 0
192 120 191 0
-193 120 0
-193 191 0
193 -120 -191 0
-194 -192 0
-194 -193 0
194 192 193 0
-195 3 0
-195 188 0
195 -3 -188 0
-196 194 0
-196 -195 0
196 -194 195 0
-197 -189 0
-197 -196 0
197 189 196 0
-198 -139 0
-198 197 0
198 139 -197 0
-199 -167 0
-199 -168 0
199 167 168 0
-200 -198 0
-200 199 0
200 198 -199 0
-201 -137 0
-201 -200 0
201 137 200 0
-202 137 0
-202 200 0
202 -137 -200 0
-203 -201 0
-203 -202 0
203 201 202 0
-204 -189 0
-204 -195 0
204 189 195 0
-205 -198 0
-205 204 0
205 198 -204 0
-206 -194 0
-206 -205 0
206 194 205 0
-207 194 0
-207 205 0
207 -194 -205 0
-208 -206 0
-208 -207 0
208 206 207 0
-209 1 0
-209 -14 0
209 -1 14 0
-210 -9 0
-210 -209 0
210 9 209 0
-211 1 0
-211 -198 0
211 -1 198 0
-212 -13 0
-212 -211 0
212 13 211 0
-213 13 0
-213 211 0
213 -13 -211 0
-214 -212 0
-214 -213 0
214 212 213 0
-215 9 0
-215 209 0
215 -9 -209 0
-216 214 0
-216 -215 0
216 -214 215 0
-217 -210 0
-217 -216 0
217 210 216 0
-218 -8 0
-218 -217 0
218 8 217 0
-219 -141 0
-219 -146 0
219 141 146 0
-220 -198 0
-220 219 0
220 198 -219 0
-221 -145 0
-221 -220 0
221 145 220 0
-222 145 0
-222 220 0
222 -145 -220 0
-223 -221 0
-223 -222 0
223 221 222 0
-224 8 0
-224 217 0
224 -8 -217 0
-225 223 0
-225 -224 0
225 -223 224 0
-226 -218 0
-226 -225 0
226 218 225 0
-227 -7 0
-227 -226 0
227 7 226 0
-228 -149 0
-228 -155 0
228 149 155 0
-229 -198 0
-229 228 0
229 198 -228 0
-230 -154 0
-230 -229 0
230 154 229 0
-231 154 0
-231 229 0
231 -154 -229 0
-232 -230 0
-232 -231 0
232 230 231 0
-233 7 0
-233 226 0
233 -7 -226 0
-234 232 0
-234 -233 0
234 -232 233 0
-235 -227 0
-235 -234 0
235 227 234 0
-236 -6 0
-236 -235 0
236 6 235 0
-237 -158 0
-237 -164 0
237 158 164 0
-238 -198 0
-238 237 0
238 198 -237 0
-239 -163 0
-239 -238 0
239 163 238 0
-240 163 0
-240 238 0
240 -163 -238 0
-241 -239 0
-241 -240 0
241 239 240 0
-242 6 0
-242 235 0
242 -6 -235 0
-243 241 0
-243 -242 0
243 -241 242 0
-244 -236 0
-244 -243 0
244 236 243 0
-245 -5 0
-245 -244 0
245 5 244 0
-246 5 0
-246 244 0
246 -5 -244 0
-247 203 0
-247 -246 0
247 -203 246 0
-248 -245 0
-248 -247 0
248 245 247 0
-249 -4 0
-249 -248 0
249 4 248 0
-250 -171 0
-250 -177 0
250 171 177 0
-251 -198 0
-251 250 0
251 198 -250 0
-252 -176 0
-252 -251 0
252 176 251 0
-253 176 0
-253 251 0
253 -176 -251 0
-254 -252 0
-254 -253 0
254 252 253 0
-255 4 0
-255 248 0
255 -4 -248 0
-256 254 0
-256 -255 0
256 -254 255 0
-257 -249 0
-257 -256 0
257 249 256 0
-258 -3 0
-258 -257 0
258 3 257 0
-259 -180 0
-259 -186 0
259 180 186 0
-260 -198 0
-260 259 0
260 198 -259 0
-261 -185 0
-261 -260 0
261 185 260 0
-262 185 0
-262 260 0
262 -185 -260 0
-263 -261 0
-263 -262 0
263 261 262 0
-264 3 0
-264 257 0
264 -3 -257 0
-265 263 0
-265 -264 0
265 -263 264 0
-266 -258 0
-266 -265 0
266 258 265 0
-267 -208 0
-267 266 0
267 208 -266 0
-268 -245 0
-268 -246 0
268 245 246 0
-269 -267 0
-269 268 0
269 267 -268 0
-270 -203 0
-270 -269 0
270 203 269 0
-271 203 0
-271 269 0
271 -203 -269 0
-272 -270 0
-272 -271 0
272 270 271 0
-273 -258 0
-273 -264 0
273 258 264 0
-274 -267 0
-274 273 0
274 267 -273 0
-275 -263 0
-275 -274 0
275 263 274 0
-276 263 0
-276 274 0
276 -263 -274 0
-277 -275 0
-277 -276 0
277 275 276 0
-278 1 0
-278 -15 0
278 -1 15 0
-279 -9 0
-279 -278 0
279 9 278 0
-280 1 0
-280 -267 0
280 -1 267 0
-281 -14 0
-281 -280 0
281 14 280 0
-282 14 0
-282 280 0
282 -14 -280 0
-283 -281 0
-283 -282 0
283 281 282 0
-284 9 0
-284 278 0
284 -9 -278 0
-285 283 0
-285 -284 0
285 -283 284 0
-286 -279 0
-286 -285 0
286 279 285 0
-287 -8 0
-287 -286 0
287 8 286 0
-288 -210 0
-288 -215 0
288 210 215 0
-289 -267 0
-289 288 0
289 267 -288 0
-290 -214 0
-290 -289 0
290 214 289 0
-291 214 0
-291 289 0
291 -214 -289 0
-292 -290 0
-292 -291 0
292 290 291 0
-293 8 0
-293 286 0
293 -8 -286 0
-294 292 0
-294 -293 0
294 -292 293 0
-295 -287 0
-295 -294 0
295 287 294 0
-296 -7 0
-296 -295 0
296 7 295 0
-297 -218 0
-297 -224 0
297 218 224 0
-298 -267 0
-298 297 0
298 267 -297 0
-299 -223 0
-299 -298 0
299 223 298 0
-300 223 0
-300 298 0
300 -223 -298 0
-301 -299 0
-301 -300 0
301 299 300 0
-302 7 0
-302 295 0
302 -7 -295 0
-303 301 0
-303 -302 0
303 -301 302 0
-304 -296 0
-304 -303 0
304 296 303 0
-305 -6 0
-305 -304 0
305 6 304 0
-306 -227 0
-306 -233 0
306 227 233 0
-307 -267 0
-307 306 0
307 267 -306 0
-308 -232 0
-308 -307 0
308 232 307 0
-309 232 0
-309 307 0
309 -232 -307 0
-310 -308 0
-310 -309 0
310 308 309 0
-311 6 0
-311 304 0
311 -6 -304 0
-312 310 0
-312 -311 0
312 -310 311 0
-313 -305 0
-313 -312 0
313 305 312 0
-314 -5 0
-314 -313 0
314 5 313 0
-315 -236 0
-315 -242 0
315 236 242 0
-316 -267 0
-316 315 0
316 267 -315 0
-317 -241 0
-317 -316 0
317 241 316 0
-318 241 0
-318 316 0
318 -241 -316 0
-319 -317 0
-319 -318 0
319 317 318 0
-320 5 0
-320 313 0
320 -5 -313 0
-321 319 0
-321 -320 0
321 -319 320 0
-322 -314 0
-322 -321 0
322 314 321 0
-323 -4 0
-323 -322 0
323 4 322 0
-324 4 0
-324 322 0
324 -4 -322 0
-325 272 0
-325 -324 0
325 -272 324 0
-326 -323 0
-326 -325 0
326 323 325 0
-327 -3 0
-327 -326 0
327 3 326 0
-328 -249 0
-328 -255 0
328 249 255 0
-329 -267 0
-329 328 0
329 267 -328 0
-330 -254 0
-330 -329 0
330 254 329 0
-331 254 0
-331 329 0
331 -254 -329 0
-332 -330 0
-332 -331 0
332 330 331 0
-333 3 0
-333 326 0
333 -3 -326 0
-334 332 0
-334 -333 0
334 -332 333 0
-335 -327 0
-335 -334 0
335 327 334 0
-336 -277 0
-336 335 0
336 277 -335 0
-337 -323 0
-337 -324 0
337 323 324 0
-338 -336 0
-338 337 0
338 336 -337 0
-339 -272 0
-339 -338 0
339 272 338 0
-340 272 0
-340 338 0
340 -272 -338 0
-341 -339 0
-341 -340 0
341 339 340 0
-342 -327 0
-342 -333 0
342 327 333 0
-343 -336 0
-343 342 0
343 336 -342 0
-344 -332 0
-344 -343 0
344 332 343 0
-345 332 0
-345 343 0
345 -332 -343 0
-346 -344 0
-346 -345 0
346 344 345 0
-347 1 0
-347 -16 0
347 -1 16 0
-348 -9 0
-348 -347 0
348 9 347 0
-349 1 0
-349 -336 0
349 -1 336 0
-350 -15 0
-350 -349 0
350 15 349 0
-351 15 0
-351 349 0
351 -15 -349 0
-352 -350 0
-352 -351 0
352 350 351 0
-353 9 0
-353 347 0
353 -9 -347 0
-354 352 0
-354 -353 0
354 -352 353 0
-355 -348 0
-355 -354 0
355 348 354 0
-356 -8 0
-356 -355 0
356 8 355 0
-357 -279 0
-357 -284 0
357 279 284 0
-358 -336 0
-358 357 0
358 336 -357 0
-359 -283 0
-359 -358 0
359 283 358 0
-360 283 0
-360 358 0
360 -283 -358 0
-361 -359 0
-361 -360 0
361 359 360 0
-362 8 0
-362 355 0
362 -8 -355 0
-363 361 0
-363 -362 0
363 -361 362 0
-364 -356 0
-364 -363 0
364 356 363 0
-365 -7 0
-365 -364 0
365 7 364 0
-366 -287 0
-366 -293 0
366 287 293 0
-367 -336 0
-367 366 0
367 336 -366 0
-368 -292 0
-368 -367 0
368 292 367 0
-369 292 0
-369 367 0
369 -292 -367 0
-370 -368 0
-370 -369 0
370 368 369 0
-371 7 0
-371 364 0
371 -7 -364 0
-372 370 0
-372 -371 0
372 -370 371 0
-373 -365 0
-373 -372 0
373 365 372 0
-374 -6 0
-374 -373 0
374 6 373 0
-375 -296 0
-375 -302 0
375 296 302 0
-376 -336 0
-376 375 0
376 336 -375 0
-377 -301 0
-377 -376 0
377 301 376 0
-378 301 0
-378 376 0
378 -301 -376 0
-379 -377 0
-379 -378 0
379 377 378 0
-380 6 0
-380 373 0
380 -6 -373 0
-381 379 0
-381 -380 0
381 -379 380 0
-382 -374 0
-382 -381 0
382 374 381 0
-383 -5 0
-383 -382 0
383 5 382 0
-384 -305 0
-384 -311 0
384 305 311 0
-385 -336 0
-385 384 0
385 336 -384 0
-386 -310 0
-386 -385 0
386 310 385 0
-387 310 0
-387 385 0
387 -310 -385 0
-388 -386 0
-388 -387 0
388 386 387 0
-389 5 0
-389 382 0
389 -5 -382 0
-390 388 0
-390 -389 0
390 -388 389 0
-391 -383 0
-391 -390 0
391 383 390 0
-392 -4 0
-392 -391 0
392 4 391 0
-393 -314 0
-393 -320 0
393 314 320 0
-394 -336 0
-394 393 0
394 336 -393 0
-395 -319 0
-395 -394 0
395 319 394 0
-396 319 0
-396 394 0
396 -319 -394 0
-397 -395 0
-397 -396 0
397 395 396 0
-398 4 0
-398 391 0
398 -4 -391 0
-399 397 0
-399 -398 0
399 -397 398 0
-400 -392 0
-400 -399 0
400 392 399 0
-401 -3 0
-401 -400 0
401 3 400 0
-402 3 0
-402 400 0
402 -3 -400 0
-403 341 0
-403 -402 0
403 -341 402 0
-404 -401 0
-404 -403 0
404 401 403 0
-405 -346 0
-405 404 0
405 346 -404 0
-406 -401 0
-406 -402 0
406 401 402 0
-407 -405 0
-407 406 0
407 405 -406 0
-408 -341 0
-408 -407 0
408 341 407 0
-409 341 0
-409 407 0
409 -341 -407 0
-410 -408 0
-410 -409 0
410 408 409 0
-411 1 0
-411 -2 0
411 -1 2 0
-412 -9 0
-412 -411 0
412 9 411 0
-413 1 0
-413 -405 0
413 -1 405 0
-414 -16 0
-414 -413 0
414 16 413 0
-415 16 0
-415 413 0
415 -16 -413 0
-416 -414 0
-416 -415 0
416 414 415 0
-417 9 0
-417 411 0
417 -9 -411 0
-418 416 0
-418 -417 0
418 -416 417 0
-419 -412 0
-419 -418 0
419 412 418 0
-420 -8 0
-420 -419 0
420 8 419 0
-421 -348 0
-421 -353 0
421 348 353 0
-422 -405 0
-422 421 0
422 405 -421 0
-423 -352 0
-423 -422 0
423 352 422 0
-424 352 0
-424 422 0
424 -352 -422 0
-425 -423 0
-425 -424 0
425 423 424 0
-426 8 0
-426 419 0
426 -8 -419 0
-427 425 0
-427 -426 0
427 -425 426 0
-428 -420 0
-428 -427 0
428 420 427 0
-429 -7 0
-429 -428 0
429 7 428 0
-430 -356 0
-430 -362 0
430 356 362 0
-431 -405 0
-431 430 0
431 405 -430 0
-432 -361 0
-432 -431 0
432 361 431 0
-433 361 0
-433 431 0
433 -361 -431 0
-434 -432 0
-434 -433 0
434 432 433 0
-435 7 0
-435 428 0
435 -7 -428 0
-436 434 0
-436 -435 0
436 -434 435 0
-437 -429 0
-437 -436 0
437 429 436 0
-438 -6 0
-438 -437 0
438 6 437 0
-439 -365 0
-439 -371 0
439 365 371 0
-440 -405 0
-440 439 0
440 405 -439 0
-441 -370 0
-441 -440 0
441 370 440 0
-442 370 0
-442 440 0
442 -370 -440 0
-443 -441 0
-443 -442 0
443 441 442 0
-444 6 0
-444 437 0
444 -6 -437 0
-445 443 0
-445 -444 0
445 -443 444 0
-446 -438 0
-446 -445 0
446 438 445 0
-447 -5 0
-447 -446 0
447 5 446 0
-448 -374 0
-448 -380 0
448 374 380 0
-449 -405 0
-449 448 0
449 405 -448 0
-450 -379 0
-450 -449 0
450 379 449 0
-451 379 0
-451 449 0
451 -379 -449 0
-452 -450 0
-452 -451 0
452 450 451 0
-453 5 0
-453 446 0
453 -5 -446 0
-454 452 0
-454 -453 0
454 -452 453 0
-455 -447 0
-455 -454 0
455 447 454 0
-456 -4 0
-456 -455 0
456 4 455 0
-457 -383 0
-457 -389 0
457 383 389 0
-458 -405 0
-458 457 0
458 405 -457 0
-459 -388 0
-459 -458 0
459 388 458 0
-460 388 0
-460 458 0
460 -388 -458 0
-461 -459 0
-461 -460 0
461 459 460 0
-462 4 0
-462 455 0
462 -4 -455 0
-463 461 0
-463 -462 0
463 -461 462 0
-464 -456 0
-464 -463 0
464 456 463 0
-465 -3 0
-465 -464 0
465 3 464 0
-466 -392 0
-466 -398 0
466 392 398 0
-467 -405 0
-467 466 0
467 405 -466 0
-468 -397 0
-468 -467 0
468 397 467 0
-469 397 0
-469 467 0
469 -397 -467 0
-470 -468 0
-470 -469 0
470 468 469 0
-471 3 0
-471 464 0
471 -3 -464 0
-472 470 0
-472 -471 0
472 -470 471 0
-473 -465 0
-473 -472 0
473 465 472 0
-474 -410 0
-474 473 0
474 410 -473 0
-475 1 0
-475 -474 0
475 -1 474 0
476 2 475 0
477 -2 -475 0
-478 -476 0
-478 -477 0
479 -1 478 0
-480 -412 0
-480 -417 0
480 412 417 0
-481 -474 0
-481 480 0
481 474 -480 0
482 416 481 0
483 -416 -481 0
-484 -482 0
-484 -483 0
-485 -9 0
-485 484 0
486 -479 485 0
487 -9 484 0
-488 -486 0
-488 -487 0
-489 -420 0
-489 -426 0
489 420 426 0
-490 -474 0
-490 489 0
490 474 -489 0
491 425 490 0
492 -425 -490 0
-493 -491 0
-493 -492 0
-494 -8 0
-494 493 0
495 488 494 0
496 -8 493 0
-497 -495 0
-497 -496 0
-498 -429 0
-498 -435 0
498 429 435 0
-499 -474 0
-499 498 0
499 474 -498 0
500 434 499 0
501 -434 -499 0
-502 -500 0
-502 -501 0
-503 -7 0
-503 502 0
504 497 503 0
505 -7 502 0
-506 -504 0
-506 -505 0
-507 -438 0
-507 -444 0
507 438 444 0
-508 -474 0
-508 507 0
508 474 -507 0
509 443 508 0
510 -443 -508 0
-511 -509 0
-511 -510 0
-512 -6 0
-512 511 0
513 506 512 0
514 -6 511 0
-515 -513 0
-515 -514 0
-516 -447 0
-516 -453 0
516 447 453 0
-517 -474 0
-517 516 0
517 474 -516 0
518 452 517 0
519 -452 -517 0
-520 -518 0
-520 -519 0
-521 -5 0
-521 520 0
522 515 521 0
523 -5 520 0
-524 -522 0
-524 -523 0
-525 -456 0
-525 -462 0
525 456 462 0
-526 -474 0
-526 525 0
526 474 -525 0
527 461 526 0
528 -461 -526 0
-529 -527 0
-529 -528 0
-530 -4 0
-530 529 0
531 524 530 0
532 -4 529 0
-533 -531 0
-533 -532 0
-534 -465 0
-534 -471 0
534 465 471 0
-535 -474 0
-535 534 0
535 474 -534 0
536 470 535 0
537 -470 -535 0
-538 -536 0
-538 -537 0
-539 -3 0
-539 538 0
540 533 539 0
541 -3 538 0
-542 -540 0
-542 -541 0
543 3 4 0
544 5 -543 0
545 6 -544 0
546 7 -545 0
547 8 -546 0
548 9 -547 0
549 1 -548 0
-550 542 0
-550 -549 0
550 0
